
Gurobi 13.0.2 (win64) logging started Thu Jul 23 17:47:21 2026

Set parameter LogFile to value "E:\codes\ExactEBRP\results\gf_gurobi_performance_recovery_round29\runs\stage2__tight_T_seed6102__c3_replica__300s\external\native_logs\R.0_lp.gurobi.log"
Gurobi Optimizer version 13.0.2 build v13.0.2rc1 (win64 - Windows 10.0 (19045.2))

CPU model: 12th Gen Intel(R) Core(TM) i7-12700KF, instruction set [SSE2|AVX|AVX2]
Thread count: 12 physical cores, 20 logical processors, using up to 1 threads

Non-default parameters:
TimeLimit  114.0258967
MIPGap  0
MIPGapAbs  0
LogToConsole  0
Threads  1

Optimize a model with 93019 rows, 18189 columns and 665236 nonzeros (Min)
Model fingerprint: 0x40944f2b
Model has 51 linear objective coefficients
Coefficient statistics:
  Matrix range     [8e-03, 2e+04]
  Objective range  [8e-03, 1e+00]
  Bounds range     [2e-01, 3e+03]
  RHS range        [4e-02, 5e+04]

Presolve removed 8239 rows and 270 columns
Presolve time: 0.37s
Presolved: 17864 rows, 102607 columns, 567165 nonzeros

Iteration    Objective       Primal Inf.    Dual Inf.      Time
       0      handle free variables                          0s

Extra simplex iterations after uncrush: 15

Extra simplex iterations from dual to original model: 4
    8984    3.9035472e-01   0.000000e+00   0.000000e+00      3s

Solved in 8984 iterations and 2.75 seconds (8.92 work units)
Optimal objective  3.903547239e-01

User-callback calls 9155, time in user-callback 0.00 sec
